instances/knapsack/discrete/knapsack_140_14.kp
73368
140
726

71 7.1 81
87 8.7 34
57 5.7 27
42 4.2 59
63 6.3 93
37 3.7 36
32 3.2 85
31 3.1 11
100 10.0 90
97 9.7 94
99 9.9 58
98 9.8 46
83 8.3 2
95 9.5 73
24 2.4 62
88 8.8 91
8 0.8 65
47 4.7 53
52 5.2 46
37 3.7 73
100 10.0 85
11 1.1 98
71 7.1 87
58 5.8 55
4 0.4 68
59 5.9 26
89 8.9 67
95 9.5 19
25 2.5 69
46 4.6 4
97 9.7 32
35 3.5 3
31 3.1 47
12 1.2 18
91 9.1 7
40 4.0 4
15 1.5 76
28 2.8 62
23 2.3 78
46 4.6 87
98 9.8 91
69 6.9 93
21 2.1 57
93 9.3 90
22 2.2 98
6 0.6 82
9 0.9 68
89 8.9 44
26 2.6 84
7 0.7 89
78 7.8 2
3 0.3 46
4 0.4 98
51 5.1 52
28 2.8 99
63 6.3 77
84 8.4 58
46 4.6 83
35 3.5 7
61 6.1 78
72 7.2 35
6 0.6 97
59 5.9 69
14 1.4 81
55 5.5 58
75 7.5 84
16 1.6 24
18 1.8 41
95 9.5 64
85 8.5 45
49 4.9 8
53 5.3 14
37 3.7 88
26 2.6 81
27 2.7 30
100 10.0 25
74 7.4 57
10 1.0 92
4 0.4 91
22 2.2 59
89 8.9 62
85 8.5 89
66 6.6 77
85 8.5 77
1 0.1 20
33 3.3 36
31 3.1 17
31 3.1 26
57 5.7 75
74 7.4 30
72 7.2 9
76 7.6 13
96 9.6 1
87 8.7 28
91 9.1 15
8 0.8 38
76 7.6 100
52 5.2 99
55 5.5 56
99 9.9 92
56 5.6 92
19 1.9 25
41 4.1 90
39 3.9 69
60 6.0 10
81 8.1 90
42 4.2 37
94 9.4 76
62 6.2 25
72 7.2 52
6 0.6 29
98 9.8 41
48 4.8 45
12 1.2 47
36 3.6 93
38 3.8 48
2 0.2 78
68 6.8 76
96 9.6 25
4 0.4 78
83 8.3 57
52 5.2 38
83 8.3 77
6 0.6 90
96 9.6 31
86 8.6 60
27 2.7 56
47 4.7 21
30 3.0 19
90 9.0 40
97 9.7 18
72 7.2 46
78 7.8 71
67 6.7 90
56 5.6 73
61 6.1 11
76 7.6 40
86 8.6 77
81 8.1 2
99 9.9 33

1506
650

[3.23 0.87 4.57 1.37 4.62 2.75 3.27 4.43 3.13 2.99 4.06 2.58 3.3 2.13 3.94 2.54 3.84 4.3 0.63 2.58 2.94 4.32 2.52 1.1 0.43 4.4 1.61 2.75 0.34 3.2 3.7 0.09 0.22 1.73 2.72 3.36 2.88 0.47 3.32 3.99 3.43 2.77 3.32 4.53 2.77 3.39 1.41 3.65 4.11 3.41 1.31 3.43 4.6 2.74 4.47 3.04 2.66 2.12 4.5 4.29 1.01 3.76 4.46 1.35 1.11 1.52 3.16 1.49 2.61 2.6 0.08 3.35 2.15 3.82 0.1 2.3 1.87 3.19 0.86 3.62 0.46 2.92 2.04 2.15 2.93 2.07 1.57 1.25 2.4 3.64 0.97 2.66 4.39 3.86 1.48 3.8 2.27 4.22 1.51 0.88 0.23 1.0 3.58 4.12 3.45 3.55 0.89 0.79 1.96 2.75 1.01 2.71 2.31 3.47 2.35 1.83 2.84 4.0 1.82 1.4 4.47 0.43 2.83 1.99 2.85 0.57 2.05 1.44 0.53 0.71 1.79 3.85 3.82 3.22 3.83 3.5 1.09 0.17 2.68 1.56]

[24 68 30 87 48 94 37 28 89 54 28 39 88 64 29 57 9 72 37 18 37 4 72 47 41 8 54 84 30 35 30 100 52 97 32 5 52 73 4 35 43 94 66 30 27 15 18 18 71 36 75 4 29 100 57 84 73 63 12 6 21 31 96 27 100 72 13 67 88 26 90 46 34 3 64 33 79 99 37 99 38 74 23 50 50 14 44 60 66 71 1 13 21 32 80 25 5 69 88 92 61 88 66 84 97 2 3 59 7 57 23 3 49 21 13 43 79 89 57 97 28 53 96 31 37 19 40 76 95 91 18 25 95 16 17 42 37 75 42 40]
