instances/knapsack/discrete_knapsack_uncertainty/knapsack_140_14.lp
\ Model knapsack_140_14
\ LP format - for model browsing. Use MPS format to capture full model detail.
\ Signature: 0x9977cb8fbdb63468
Minimize
  - 64 x[0] - 92 x[1] - 90 x[2] - 98 x[3] - 75 x[4] - 83 x[5] - 35 x[6]
   - 53 x[7] - 8 x[8] - 12 x[9] - 5 x[10] - 89 x[11] - 49 x[12] - 72 x[13]
   - 33 x[14] - 98 x[15] - 4 x[16] - 32 x[17] - 4 x[18] - 59 x[19]
   - 63 x[20] - 53 x[21] - 2 x[22] - 6 x[23] - 59 x[24] - 48 x[25]
   - 34 x[26] - 69 x[27] - 36 x[28] - 70 x[29] - 99 x[30] - 94 x[31]
   - 18 x[32] - 29 x[33] - 29 x[34] - 79 x[35] - 15 x[36] - 85 x[37]
   - 72 x[38] - 9 x[39] - 22 x[40] - 79 x[41] - 83 x[42] - 81 x[43]
   - 48 x[44] - 77 x[45] - 34 x[46] - 78 x[47] - 26 x[48] - 51 x[49]
   - 25 x[50] - 44 x[51] - 97 x[52] - 79 x[53] - 66 x[54] - 16 x[55]
   - 40 x[56] - 62 x[57] - 94 x[58] - 81 x[59] - 98 x[60] - 88 x[61]
   - 99 x[62] - 47 x[63] - 24 x[64] - 99 x[65] - 35 x[66] - 63 x[67]
   - 38 x[68] - 59 x[69] - 95 x[70] - x[71] - 39 x[72] - 7 x[73] - 12 x[74]
   - 28 x[75] - 36 x[76] - 31 x[77] - 42 x[78] - 85 x[79] - 25 x[80]
   - 32 x[81] - 39 x[82] - 16 x[83] - 71 x[84] - 6 x[85] - 4 x[86]
   - 77 x[87] - 86 x[88] - 96 x[89] - 96 x[90] - 47 x[91] - 39 x[92]
   - 6 x[93] - 98 x[94] - 44 x[95] - 95 x[96] - 18 x[97] - 86 x[98]
   - 30 x[99] - 82 x[100] - 67 x[101] - 52 x[102] - 51 x[103] - 25 x[104]
   - 73 x[105] - 20 x[106] - 34 x[107] - 60 x[108] - 86 x[109] - 95 x[110]
   - 72 x[111] - 71 x[112] - 41 x[113] - 28 x[114] - 95 x[115] - 57 x[116]
   - 35 x[117] - 24 x[118] - 25 x[119] - 7 x[120] - 12 x[121] - 96 x[122]
   - 13 x[123] - 89 x[124] - 86 x[125] - 74 x[126] - 8 x[127] - 5 x[128]
   - 50 x[129] - 16 x[130] - 89 x[131] - 74 x[132] - 56 x[133] - 67 x[134]
   - 93 x[135] - 74 x[136] - 31 x[137] - 29 x[138] - 3 x[139]
Subject To
 primal_upper: 15 x[0] + 24 x[1] + 98 x[2] + 75 x[3] + 92 x[4] + 9 x[5]
   + 77 x[6] + 39 x[7] + 65 x[8] + 70 x[9] + 7 x[10] + 47 x[11] + 28 x[12]
   + 68 x[13] + 64 x[14] + 96 x[15] + 25 x[16] + 96 x[17] + 25 x[18]
   + 74 x[19] + 53 x[20] + 3 x[21] + 4 x[22] + 58 x[23] + 72 x[24]
   + 28 x[25] + 26 x[26] + 59 x[27] + 81 x[28] + 23 x[29] + 17 x[30]
   + 87 x[31] + 19 x[32] + 81 x[33] + 100 x[34] + 69 x[35] + 80 x[36]
   + 40 x[37] + 72 x[38] + 2 x[39] + 83 x[40] + 25 x[41] + 58 x[42]
   + 33 x[43] + 47 x[44] + 78 x[45] + 17 x[46] + 97 x[47] + 87 x[48]
   + 36 x[49] + 98 x[50] + 80 x[51] + 77 x[52] + 24 x[53] + 56 x[54]
   + 3 x[55] + 5 x[56] + 78 x[57] + 92 x[58] + 62 x[59] + 76 x[60]
   + 70 x[61] + 95 x[62] + 86 x[63] + 79 x[64] + 24 x[65] + 72 x[66]
   + 18 x[67] + 48 x[68] + 33 x[69] + 77 x[70] + 85 x[71] + 2 x[72]
   + 11 x[73] + 15 x[74] + 12 x[75] + 2 x[76] + 63 x[77] + 80 x[78]
   + 10 x[79] + 13 x[80] + 85 x[81] + 66 x[82] + 93 x[83] + 89 x[84]
   + 89 x[85] + 55 x[86] + 8 x[87] + 42 x[88] + 43 x[89] + 32 x[90]
   + 20 x[91] + 88 x[92] + 35 x[93] + 72 x[94] + 65 x[95] + 73 x[96]
   + 8 x[97] + 36 x[98] + 36 x[99] + 45 x[100] + 20 x[101] + 58 x[102]
   + 24 x[103] + 65 x[104] + 34 x[105] + 87 x[106] + 70 x[107] + 34 x[108]
   + 65 x[109] + 22 x[110] + 87 x[111] + 49 x[112] + 13 x[113] + 77 x[114]
   + 62 x[115] + 19 x[116] + 41 x[117] + 41 x[118] + 12 x[119] + 63 x[120]
   + 48 x[121] + 23 x[122] + 50 x[123] + 69 x[124] + 86 x[125] + 99 x[126]
   + 19 x[127] + 94 x[128] + 91 x[129] + 81 x[130] + 45 x[131] + 50 x[132]
   + 44 x[133] + 24 x[134] + 34 x[135] + x[136] + 90 x[137] + 29 x[138]
   + 4 x[139] + 1.5 r[0] + 2.4 r[1] + 9.8 r[2] + 7.5 r[3] + 9.2 r[4]
   + 0.9 r[5] + 7.7 r[6] + 3.9 r[7] + 6.5 r[8] + 7 r[9] + 0.7 r[10]
   + 4.7 r[11] + 2.8 r[12] + 6.8 r[13] + 6.4 r[14] + 9.6 r[15] + 2.5 r[16]
   + 9.6 r[17] + 2.5 r[18] + 7.4 r[19] + 5.3 r[20] + 0.3 r[21] + 0.4 r[22]
   + 5.8 r[23] + 7.2 r[24] + 2.8 r[25] + 2.6 r[26] + 5.9 r[27] + 8.1 r[28]
   + 2.3 r[29] + 1.7 r[30] + 8.7 r[31] + 1.9 r[32] + 8.1 r[33] + 10 r[34]
   + 6.9 r[35] + 8 r[36] + 4 r[37] + 7.2 r[38] + 0.2 r[39] + 8.3 r[40]
   + 2.5 r[41] + 5.8 r[42] + 3.3 r[43] + 4.7 r[44] + 7.8 r[45] + 1.7 r[46]
   + 9.7 r[47] + 8.7 r[48] + 3.6 r[49] + 9.8 r[50] + 8 r[51] + 7.7 r[52]
   + 2.4 r[53] + 5.6 r[54] + 0.3 r[55] + 0.5 r[56] + 7.8 r[57] + 9.2 r[58]
   + 6.2 r[59] + 7.6 r[60] + 7 r[61] + 9.5 r[62] + 8.6 r[63] + 7.9 r[64]
   + 2.4 r[65] + 7.2 r[66] + 1.8 r[67] + 4.8 r[68] + 3.3 r[69] + 7.7 r[70]
   + 8.5 r[71] + 0.2 r[72] + 1.1 r[73] + 1.5 r[74] + 1.2 r[75] + 0.2 r[76]
   + 6.3 r[77] + 8 r[78] + r[79] + 1.3 r[80] + 8.5 r[81] + 6.6 r[82]
   + 9.3 r[83] + 8.9 r[84] + 8.9 r[85] + 5.5 r[86] + 0.8 r[87] + 4.2 r[88]
   + 4.3 r[89] + 3.2 r[90] + 2 r[91] + 8.8 r[92] + 3.5 r[93] + 7.2 r[94]
   + 6.5 r[95] + 7.3 r[96] + 0.8 r[97] + 3.6 r[98] + 3.6 r[99] + 4.5 r[100]
   + 2 r[101] + 5.8 r[102] + 2.4 r[103] + 6.5 r[104] + 3.4 r[105]
   + 8.7 r[106] + 7 r[107] + 3.4 r[108] + 6.5 r[109] + 2.2 r[110]
   + 8.7 r[111] + 4.9 r[112] + 1.3 r[113] + 7.7 r[114] + 6.2 r[115]
   + 1.9 r[116] + 4.1 r[117] + 4.1 r[118] + 1.2 r[119] + 6.3 r[120]
   + 4.8 r[121] + 2.3 r[122] + 5 r[123] + 6.9 r[124] + 8.6 r[125]
   + 9.9 r[126] + 1.9 r[127] + 9.4 r[128] + 9.1 r[129] + 8.1 r[130]
   + 4.5 r[131] + 5 r[132] + 4.4 r[133] + 2.4 r[134] + 3.4 r[135]
   + 0.1 r[136] + 9 r[137] + 2.9 r[138] + 0.4 r[139] <= 683
 primal_lower: 1.222352414765132 x[0] + 3.108490456648323 x[1]
   + 3.385572035052797 x[2] + 3.721435388093738 x[3]
   + 3.131086338283659 x[4] + 1.080641980727524 x[5]
   + 2.035546426251656 x[6] + 3.802231352794001 x[7]
   + 4.245600771764136 x[8] + 2.723563582562059 x[9]
   + 4.469415200960673 x[10] + 0.1296087500409252 x[11]
   + 0.508090548085271 x[12] + 1.055000365501396 x[13]
   + 3.510691506984943 x[14] + 0.9431365274651272 x[15]
   + 0.3629245036867106 x[16] + 4.07250118831355 x[17]
   + 4.347019310022685 x[18] + 3.468616426539181 x[19]
   + 3.508388900334025 x[20] + 2.921814306176462 x[21]
   + 3.46516253136048 x[22] + 4.84692064150817 x[23]
   + 2.159347226523774 x[24] + 2.549075507782772 x[25]
   + 0.5812465661508146 x[26] + 4.763319106359329 x[27]
   + 2.905725197790707 x[28] + 4.981473933828767 x[29]
   + 2.344943413172577 x[30] + 3.97064763966352 x[31]
   + 4.210294418406034 x[32] + 4.900970539934176 x[33]
   + 0.9081374011259117 x[34] + 1.620469101010286 x[35]
   + 4.783203012081476 x[36] + 3.019206062485415 x[37]
   + 2.2902013354196 x[38] + 2.512472627103111 x[39]
   + 3.043183438958526 x[40] + 4.736348940753648 x[41]
   + 0.2941483305155103 x[42] + 1.800037219693466 x[43]
   + 3.83859321652587 x[44] + 0.3108503168144954 x[45]
   + 1.24626805102661 x[46] + 3.033848925324287 x[47]
   + 1.796592337510981 x[48] + 2.582708722241144 x[49]
   + 3.954183072839719 x[50] + 0.1064941230389905 x[51]
   + 3.416589684969197 x[52] + 0.9161516476071403 x[53]
   + 4.594074243625437 x[54] + 4.328978453512811 x[55]
   + 1.563675008727364 x[56] + 4.336659763564537 x[57]
   + 0.2623851999474189 x[58] + 4.004776396379185 x[59]
   + 3.868589578016049 x[60] + 3.513284570873264 x[61]
   + 3.912689150745632 x[62] + 4.878465608176789 x[63]
   + 4.705939153150689 x[64] + 0.1853800824217489 x[65]
   + 1.890462169183248 x[66] + 2.215701815711591 x[67]
   + 0.2559601695803664 x[68] + 1.836700071918952 x[69]
   + 4.216379283286184 x[70] + 0.2625231607756648 x[71]
   + 0.9480336436112606 x[72] + 1.693440405905124 x[73]
   + 1.505910181164699 x[74] + 0.414007136797624 x[75]
   + 1.264509782655489 x[76] + 2.782744171500107 x[77]
   + 1.423093230408265 x[78] + 4.961616536956331 x[79]
   + 3.544314517710757 x[80] + 0.1410480910211045 x[81]
   + 0.5866042112665665 x[82] + 1.812542280863739 x[83]
   + 4.491079401902387 x[84] + 1.052333496044885 x[85]
   + 2.447174043454631 x[86] + 0.2955200801179859 x[87]
   + 1.418339929737063 x[88] + 1.742508151484779 x[89]
   + 4.672734670110903 x[90] + 1.484813569521351 x[91]
   + 1.219990805626299 x[92] + 3.41531001008366 x[93]
   + 4.181588013728612 x[94] + 2.30256315115281 x[95]
   + 1.483688173448847 x[96] + 3.260270534672853 x[97]
   + 1.041828825462188 x[98] + 0.5880562514919676 x[99]
   + 3.890540404925731 x[100] + 3.938692262917249 x[101]
   + 1.828953368994237 x[102] + 0.2186244096508584 x[103]
   + 4.273848568484794 x[104] + 3.775651936615723 x[105]
   + 4.192089890421252 x[106] + 0.3104395456127176 x[107]
   + 2.302783895123067 x[108] + 3.303929826296934 x[109]
   + 4.013521298159526 x[110] + 0.0632840298053177 x[111]
   + 0.852017495091828 x[112] + 2.799895915290006 x[113]
   + 2.767140842958757 x[114] + 2.17914276582505 x[115]
   + 4.63725319937219 x[116] + 2.403297916803237 x[117]
   + 3.931504942954555 x[118] + 4.016776840004955 x[119]
   + 0.048289257459978 x[120] + 1.08199901886688 x[121]
   + 0.1102160163563787 x[122] + 2.857377720355378 x[123]
   + 1.910000553498622 x[124] + 3.013797208029747 x[125]
   + 4.366672878582566 x[126] + 1.14824290516558 x[127]
   + 2.606939452661687 x[128] + 4.882267755399813 x[129]
   + 1.570732363253393 x[130] + 3.468513271432083 x[131]
   + 4.348979912823432 x[132] + 4.906924336140475 x[133]
   + 3.891261552197826 x[134] + 2.418002542467732 x[135]
   + 0.3548394886746187 x[136] + 4.150109852730027 x[137]
   + 0.9508502313688669 x[138] + 2.373697875285806 x[139] + 33 u[0]
   + 85 u[1] + 7 u[2] + 96 u[3] + 49 u[4] + 19 u[5] + 22 u[6] + 81 u[7]
   + 90 u[8] + 51 u[9] + 9 u[10] + 16 u[11] + 21 u[12] + 81 u[13]
   + 42 u[14] + 30 u[15] + 62 u[16] + 29 u[17] + 22 u[18] + 23 u[19]
   + 58 u[20] + 13 u[21] + 33 u[22] + 100 u[23] + 18 u[24] + 25 u[25]
   + 79 u[26] + 13 u[27] + 27 u[28] + 68 u[29] + 95 u[30] + 93 u[31]
   + 53 u[32] + 38 u[33] + 45 u[34] + 82 u[35] + 89 u[36] + 90 u[37]
   + 13 u[38] + 4 u[39] + 92 u[40] + 27 u[41] + 71 u[42] + 11 u[43]
   + 100 u[44] + 96 u[45] + 71 u[46] + 43 u[47] + 28 u[48] + 65 u[49]
   + 68 u[50] + 41 u[51] + 50 u[52] + 17 u[53] + 90 u[54] + 49 u[55]
   + 6 u[56] + 36 u[57] + 93 u[58] + 91 u[59] + 62 u[60] + 100 u[61]
   + 93 u[62] + 36 u[63] + 49 u[64] + 33 u[65] + 26 u[66] + 84 u[67]
   + 37 u[68] + 11 u[69] + 43 u[70] + 43 u[71] + 19 u[72] + 92 u[73]
   + u[74] + 30 u[75] + 76 u[76] + 56 u[77] + 94 u[78] + 36 u[79]
   + 63 u[80] + 59 u[81] + 28 u[82] + 95 u[83] + 3 u[84] + 59 u[85]
   + 81 u[86] + 81 u[87] + 95 u[88] + 84 u[89] + 42 u[90] + 38 u[91]
   + 86 u[92] + 65 u[93] + 49 u[94] + 26 u[95] + 34 u[96] + 22 u[97]
   + 97 u[98] + 89 u[99] + 98 u[100] + 41 u[101] + 67 u[102] + 53 u[103]
   + 10 u[104] + 7 u[105] + 88 u[106] + 8 u[107] + 36 u[108] + 66 u[109]
   + 32 u[110] + 24 u[111] + 34 u[112] + 74 u[113] + 50 u[114] + 56 u[115]
   + 76 u[116] + 94 u[117] + 74 u[118] + 58 u[119] + 17 u[120] + 34 u[121]
   + 57 u[122] + 52 u[123] + 58 u[124] + 44 u[125] + 97 u[126] + 41 u[127]
   + 92 u[128] + 60 u[129] + 3 u[130] + 66 u[131] + 52 u[132] + 73 u[133]
   + 46 u[134] + 59 u[135] + 82 u[136] + 52 u[137] + 47 u[138] + 73 u[139]
   <= 11820
 mccormick1[0]: - u[0] + r[0] <= 0
 mccormick1[1]: - u[1] + r[1] <= 0
 mccormick1[2]: - u[2] + r[2] <= 0
 mccormick1[3]: - u[3] + r[3] <= 0
 mccormick1[4]: - u[4] + r[4] <= 0
 mccormick1[5]: - u[5] + r[5] <= 0
 mccormick1[6]: - u[6] + r[6] <= 0
 mccormick1[7]: - u[7] + r[7] <= 0
 mccormick1[8]: - u[8] + r[8] <= 0
 mccormick1[9]: - u[9] + r[9] <= 0
 mccormick1[10]: - u[10] + r[10] <= 0
 mccormick1[11]: - u[11] + r[11] <= 0
 mccormick1[12]: - u[12] + r[12] <= 0
 mccormick1[13]: - u[13] + r[13] <= 0
 mccormick1[14]: - u[14] + r[14] <= 0
 mccormick1[15]: - u[15] + r[15] <= 0
 mccormick1[16]: - u[16] + r[16] <= 0
 mccormick1[17]: - u[17] + r[17] <= 0
 mccormick1[18]: - u[18] + r[18] <= 0
 mccormick1[19]: - u[19] + r[19] <= 0
 mccormick1[20]: - u[20] + r[20] <= 0
 mccormick1[21]: - u[21] + r[21] <= 0
 mccormick1[22]: - u[22] + r[22] <= 0
 mccormick1[23]: - u[23] + r[23] <= 0
 mccormick1[24]: - u[24] + r[24] <= 0
 mccormick1[25]: - u[25] + r[25] <= 0
 mccormick1[26]: - u[26] + r[26] <= 0
 mccormick1[27]: - u[27] + r[27] <= 0
 mccormick1[28]: - u[28] + r[28] <= 0
 mccormick1[29]: - u[29] + r[29] <= 0
 mccormick1[30]: - u[30] + r[30] <= 0
 mccormick1[31]: - u[31] + r[31] <= 0
 mccormick1[32]: - u[32] + r[32] <= 0
 mccormick1[33]: - u[33] + r[33] <= 0
 mccormick1[34]: - u[34] + r[34] <= 0
 mccormick1[35]: - u[35] + r[35] <= 0
 mccormick1[36]: - u[36] + r[36] <= 0
 mccormick1[37]: - u[37] + r[37] <= 0
 mccormick1[38]: - u[38] + r[38] <= 0
 mccormick1[39]: - u[39] + r[39] <= 0
 mccormick1[40]: - u[40] + r[40] <= 0
 mccormick1[41]: - u[41] + r[41] <= 0
 mccormick1[42]: - u[42] + r[42] <= 0
 mccormick1[43]: - u[43] + r[43] <= 0
 mccormick1[44]: - u[44] + r[44] <= 0
 mccormick1[45]: - u[45] + r[45] <= 0
 mccormick1[46]: - u[46] + r[46] <= 0
 mccormick1[47]: - u[47] + r[47] <= 0
 mccormick1[48]: - u[48] + r[48] <= 0
 mccormick1[49]: - u[49] + r[49] <= 0
 mccormick1[50]: - u[50] + r[50] <= 0
 mccormick1[51]: - u[51] + r[51] <= 0
 mccormick1[52]: - u[52] + r[52] <= 0
 mccormick1[53]: - u[53] + r[53] <= 0
 mccormick1[54]: - u[54] + r[54] <= 0
 mccormick1[55]: - u[55] + r[55] <= 0
 mccormick1[56]: - u[56] + r[56] <= 0
 mccormick1[57]: - u[57] + r[57] <= 0
 mccormick1[58]: - u[58] + r[58] <= 0
 mccormick1[59]: - u[59] + r[59] <= 0
 mccormick1[60]: - u[60] + r[60] <= 0
 mccormick1[61]: - u[61] + r[61] <= 0
 mccormick1[62]: - u[62] + r[62] <= 0
 mccormick1[63]: - u[63] + r[63] <= 0
 mccormick1[64]: - u[64] + r[64] <= 0
 mccormick1[65]: - u[65] + r[65] <= 0
 mccormick1[66]: - u[66] + r[66] <= 0
 mccormick1[67]: - u[67] + r[67] <= 0
 mccormick1[68]: - u[68] + r[68] <= 0
 mccormick1[69]: - u[69] + r[69] <= 0
 mccormick1[70]: - u[70] + r[70] <= 0
 mccormick1[71]: - u[71] + r[71] <= 0
 mccormick1[72]: - u[72] + r[72] <= 0
 mccormick1[73]: - u[73] + r[73] <= 0
 mccormick1[74]: - u[74] + r[74] <= 0
 mccormick1[75]: - u[75] + r[75] <= 0
 mccormick1[76]: - u[76] + r[76] <= 0
 mccormick1[77]: - u[77] + r[77] <= 0
 mccormick1[78]: - u[78] + r[78] <= 0
 mccormick1[79]: - u[79] + r[79] <= 0
 mccormick1[80]: - u[80] + r[80] <= 0
 mccormick1[81]: - u[81] + r[81] <= 0
 mccormick1[82]: - u[82] + r[82] <= 0
 mccormick1[83]: - u[83] + r[83] <= 0
 mccormick1[84]: - u[84] + r[84] <= 0
 mccormick1[85]: - u[85] + r[85] <= 0
 mccormick1[86]: - u[86] + r[86] <= 0
 mccormick1[87]: - u[87] + r[87] <= 0
 mccormick1[88]: - u[88] + r[88] <= 0
 mccormick1[89]: - u[89] + r[89] <= 0
 mccormick1[90]: - u[90] + r[90] <= 0
 mccormick1[91]: - u[91] + r[91] <= 0
 mccormick1[92]: - u[92] + r[92] <= 0
 mccormick1[93]: - u[93] + r[93] <= 0
 mccormick1[94]: - u[94] + r[94] <= 0
 mccormick1[95]: - u[95] + r[95] <= 0
 mccormick1[96]: - u[96] + r[96] <= 0
 mccormick1[97]: - u[97] + r[97] <= 0
 mccormick1[98]: - u[98] + r[98] <= 0
 mccormick1[99]: - u[99] + r[99] <= 0
 mccormick1[100]: - u[100] + r[100] <= 0
 mccormick1[101]: - u[101] + r[101] <= 0
 mccormick1[102]: - u[102] + r[102] <= 0
 mccormick1[103]: - u[103] + r[103] <= 0
 mccormick1[104]: - u[104] + r[104] <= 0
 mccormick1[105]: - u[105] + r[105] <= 0
 mccormick1[106]: - u[106] + r[106] <= 0
 mccormick1[107]: - u[107] + r[107] <= 0
 mccormick1[108]: - u[108] + r[108] <= 0
 mccormick1[109]: - u[109] + r[109] <= 0
 mccormick1[110]: - u[110] + r[110] <= 0
 mccormick1[111]: - u[111] + r[111] <= 0
 mccormick1[112]: - u[112] + r[112] <= 0
 mccormick1[113]: - u[113] + r[113] <= 0
 mccormick1[114]: - u[114] + r[114] <= 0
 mccormick1[115]: - u[115] + r[115] <= 0
 mccormick1[116]: - u[116] + r[116] <= 0
 mccormick1[117]: - u[117] + r[117] <= 0
 mccormick1[118]: - u[118] + r[118] <= 0
 mccormick1[119]: - u[119] + r[119] <= 0
 mccormick1[120]: - u[120] + r[120] <= 0
 mccormick1[121]: - u[121] + r[121] <= 0
 mccormick1[122]: - u[122] + r[122] <= 0
 mccormick1[123]: - u[123] + r[123] <= 0
 mccormick1[124]: - u[124] + r[124] <= 0
 mccormick1[125]: - u[125] + r[125] <= 0
 mccormick1[126]: - u[126] + r[126] <= 0
 mccormick1[127]: - u[127] + r[127] <= 0
 mccormick1[128]: - u[128] + r[128] <= 0
 mccormick1[129]: - u[129] + r[129] <= 0
 mccormick1[130]: - u[130] + r[130] <= 0
 mccormick1[131]: - u[131] + r[131] <= 0
 mccormick1[132]: - u[132] + r[132] <= 0
 mccormick1[133]: - u[133] + r[133] <= 0
 mccormick1[134]: - u[134] + r[134] <= 0
 mccormick1[135]: - u[135] + r[135] <= 0
 mccormick1[136]: - u[136] + r[136] <= 0
 mccormick1[137]: - u[137] + r[137] <= 0
 mccormick1[138]: - u[138] + r[138] <= 0
 mccormick1[139]: - u[139] + r[139] <= 0
 mccormick2[0]: - x[0] + r[0] <= 0
 mccormick2[1]: - x[1] + r[1] <= 0
 mccormick2[2]: - x[2] + r[2] <= 0
 mccormick2[3]: - x[3] + r[3] <= 0
 mccormick2[4]: - x[4] + r[4] <= 0
 mccormick2[5]: - x[5] + r[5] <= 0
 mccormick2[6]: - x[6] + r[6] <= 0
 mccormick2[7]: - x[7] + r[7] <= 0
 mccormick2[8]: - x[8] + r[8] <= 0
 mccormick2[9]: - x[9] + r[9] <= 0
 mccormick2[10]: - x[10] + r[10] <= 0
 mccormick2[11]: - x[11] + r[11] <= 0
 mccormick2[12]: - x[12] + r[12] <= 0
 mccormick2[13]: - x[13] + r[13] <= 0
 mccormick2[14]: - x[14] + r[14] <= 0
 mccormick2[15]: - x[15] + r[15] <= 0
 mccormick2[16]: - x[16] + r[16] <= 0
 mccormick2[17]: - x[17] + r[17] <= 0
 mccormick2[18]: - x[18] + r[18] <= 0
 mccormick2[19]: - x[19] + r[19] <= 0
 mccormick2[20]: - x[20] + r[20] <= 0
 mccormick2[21]: - x[21] + r[21] <= 0
 mccormick2[22]: - x[22] + r[22] <= 0
 mccormick2[23]: - x[23] + r[23] <= 0
 mccormick2[24]: - x[24] + r[24] <= 0
 mccormick2[25]: - x[25] + r[25] <= 0
 mccormick2[26]: - x[26] + r[26] <= 0
 mccormick2[27]: - x[27] + r[27] <= 0
 mccormick2[28]: - x[28] + r[28] <= 0
 mccormick2[29]: - x[29] + r[29] <= 0
 mccormick2[30]: - x[30] + r[30] <= 0
 mccormick2[31]: - x[31] + r[31] <= 0
 mccormick2[32]: - x[32] + r[32] <= 0
 mccormick2[33]: - x[33] + r[33] <= 0
 mccormick2[34]: - x[34] + r[34] <= 0
 mccormick2[35]: - x[35] + r[35] <= 0
 mccormick2[36]: - x[36] + r[36] <= 0
 mccormick2[37]: - x[37] + r[37] <= 0
 mccormick2[38]: - x[38] + r[38] <= 0
 mccormick2[39]: - x[39] + r[39] <= 0
 mccormick2[40]: - x[40] + r[40] <= 0
 mccormick2[41]: - x[41] + r[41] <= 0
 mccormick2[42]: - x[42] + r[42] <= 0
 mccormick2[43]: - x[43] + r[43] <= 0
 mccormick2[44]: - x[44] + r[44] <= 0
 mccormick2[45]: - x[45] + r[45] <= 0
 mccormick2[46]: - x[46] + r[46] <= 0
 mccormick2[47]: - x[47] + r[47] <= 0
 mccormick2[48]: - x[48] + r[48] <= 0
 mccormick2[49]: - x[49] + r[49] <= 0
 mccormick2[50]: - x[50] + r[50] <= 0
 mccormick2[51]: - x[51] + r[51] <= 0
 mccormick2[52]: - x[52] + r[52] <= 0
 mccormick2[53]: - x[53] + r[53] <= 0
 mccormick2[54]: - x[54] + r[54] <= 0
 mccormick2[55]: - x[55] + r[55] <= 0
 mccormick2[56]: - x[56] + r[56] <= 0
 mccormick2[57]: - x[57] + r[57] <= 0
 mccormick2[58]: - x[58] + r[58] <= 0
 mccormick2[59]: - x[59] + r[59] <= 0
 mccormick2[60]: - x[60] + r[60] <= 0
 mccormick2[61]: - x[61] + r[61] <= 0
 mccormick2[62]: - x[62] + r[62] <= 0
 mccormick2[63]: - x[63] + r[63] <= 0
 mccormick2[64]: - x[64] + r[64] <= 0
 mccormick2[65]: - x[65] + r[65] <= 0
 mccormick2[66]: - x[66] + r[66] <= 0
 mccormick2[67]: - x[67] + r[67] <= 0
 mccormick2[68]: - x[68] + r[68] <= 0
 mccormick2[69]: - x[69] + r[69] <= 0
 mccormick2[70]: - x[70] + r[70] <= 0
 mccormick2[71]: - x[71] + r[71] <= 0
 mccormick2[72]: - x[72] + r[72] <= 0
 mccormick2[73]: - x[73] + r[73] <= 0
 mccormick2[74]: - x[74] + r[74] <= 0
 mccormick2[75]: - x[75] + r[75] <= 0
 mccormick2[76]: - x[76] + r[76] <= 0
 mccormick2[77]: - x[77] + r[77] <= 0
 mccormick2[78]: - x[78] + r[78] <= 0
 mccormick2[79]: - x[79] + r[79] <= 0
 mccormick2[80]: - x[80] + r[80] <= 0
 mccormick2[81]: - x[81] + r[81] <= 0
 mccormick2[82]: - x[82] + r[82] <= 0
 mccormick2[83]: - x[83] + r[83] <= 0
 mccormick2[84]: - x[84] + r[84] <= 0
 mccormick2[85]: - x[85] + r[85] <= 0
 mccormick2[86]: - x[86] + r[86] <= 0
 mccormick2[87]: - x[87] + r[87] <= 0
 mccormick2[88]: - x[88] + r[88] <= 0
 mccormick2[89]: - x[89] + r[89] <= 0
 mccormick2[90]: - x[90] + r[90] <= 0
 mccormick2[91]: - x[91] + r[91] <= 0
 mccormick2[92]: - x[92] + r[92] <= 0
 mccormick2[93]: - x[93] + r[93] <= 0
 mccormick2[94]: - x[94] + r[94] <= 0
 mccormick2[95]: - x[95] + r[95] <= 0
 mccormick2[96]: - x[96] + r[96] <= 0
 mccormick2[97]: - x[97] + r[97] <= 0
 mccormick2[98]: - x[98] + r[98] <= 0
 mccormick2[99]: - x[99] + r[99] <= 0
 mccormick2[100]: - x[100] + r[100] <= 0
 mccormick2[101]: - x[101] + r[101] <= 0
 mccormick2[102]: - x[102] + r[102] <= 0
 mccormick2[103]: - x[103] + r[103] <= 0
 mccormick2[104]: - x[104] + r[104] <= 0
 mccormick2[105]: - x[105] + r[105] <= 0
 mccormick2[106]: - x[106] + r[106] <= 0
 mccormick2[107]: - x[107] + r[107] <= 0
 mccormick2[108]: - x[108] + r[108] <= 0
 mccormick2[109]: - x[109] + r[109] <= 0
 mccormick2[110]: - x[110] + r[110] <= 0
 mccormick2[111]: - x[111] + r[111] <= 0
 mccormick2[112]: - x[112] + r[112] <= 0
 mccormick2[113]: - x[113] + r[113] <= 0
 mccormick2[114]: - x[114] + r[114] <= 0
 mccormick2[115]: - x[115] + r[115] <= 0
 mccormick2[116]: - x[116] + r[116] <= 0
 mccormick2[117]: - x[117] + r[117] <= 0
 mccormick2[118]: - x[118] + r[118] <= 0
 mccormick2[119]: - x[119] + r[119] <= 0
 mccormick2[120]: - x[120] + r[120] <= 0
 mccormick2[121]: - x[121] + r[121] <= 0
 mccormick2[122]: - x[122] + r[122] <= 0
 mccormick2[123]: - x[123] + r[123] <= 0
 mccormick2[124]: - x[124] + r[124] <= 0
 mccormick2[125]: - x[125] + r[125] <= 0
 mccormick2[126]: - x[126] + r[126] <= 0
 mccormick2[127]: - x[127] + r[127] <= 0
 mccormick2[128]: - x[128] + r[128] <= 0
 mccormick2[129]: - x[129] + r[129] <= 0
 mccormick2[130]: - x[130] + r[130] <= 0
 mccormick2[131]: - x[131] + r[131] <= 0
 mccormick2[132]: - x[132] + r[132] <= 0
 mccormick2[133]: - x[133] + r[133] <= 0
 mccormick2[134]: - x[134] + r[134] <= 0
 mccormick2[135]: - x[135] + r[135] <= 0
 mccormick2[136]: - x[136] + r[136] <= 0
 mccormick2[137]: - x[137] + r[137] <= 0
 mccormick2[138]: - x[138] + r[138] <= 0
 mccormick2[139]: - x[139] + r[139] <= 0
 mccormick3[0]: x[0] + u[0] - r[0] <= 1
 mccormick3[1]: x[1] + u[1] - r[1] <= 1
 mccormick3[2]: x[2] + u[2] - r[2] <= 1
 mccormick3[3]: x[3] + u[3] - r[3] <= 1
 mccormick3[4]: x[4] + u[4] - r[4] <= 1
 mccormick3[5]: x[5] + u[5] - r[5] <= 1
 mccormick3[6]: x[6] + u[6] - r[6] <= 1
 mccormick3[7]: x[7] + u[7] - r[7] <= 1
 mccormick3[8]: x[8] + u[8] - r[8] <= 1
 mccormick3[9]: x[9] + u[9] - r[9] <= 1
 mccormick3[10]: x[10] + u[10] - r[10] <= 1
 mccormick3[11]: x[11] + u[11] - r[11] <= 1
 mccormick3[12]: x[12] + u[12] - r[12] <= 1
 mccormick3[13]: x[13] + u[13] - r[13] <= 1
 mccormick3[14]: x[14] + u[14] - r[14] <= 1
 mccormick3[15]: x[15] + u[15] - r[15] <= 1
 mccormick3[16]: x[16] + u[16] - r[16] <= 1
 mccormick3[17]: x[17] + u[17] - r[17] <= 1
 mccormick3[18]: x[18] + u[18] - r[18] <= 1
 mccormick3[19]: x[19] + u[19] - r[19] <= 1
 mccormick3[20]: x[20] + u[20] - r[20] <= 1
 mccormick3[21]: x[21] + u[21] - r[21] <= 1
 mccormick3[22]: x[22] + u[22] - r[22] <= 1
 mccormick3[23]: x[23] + u[23] - r[23] <= 1
 mccormick3[24]: x[24] + u[24] - r[24] <= 1
 mccormick3[25]: x[25] + u[25] - r[25] <= 1
 mccormick3[26]: x[26] + u[26] - r[26] <= 1
 mccormick3[27]: x[27] + u[27] - r[27] <= 1
 mccormick3[28]: x[28] + u[28] - r[28] <= 1
 mccormick3[29]: x[29] + u[29] - r[29] <= 1
 mccormick3[30]: x[30] + u[30] - r[30] <= 1
 mccormick3[31]: x[31] + u[31] - r[31] <= 1
 mccormick3[32]: x[32] + u[32] - r[32] <= 1
 mccormick3[33]: x[33] + u[33] - r[33] <= 1
 mccormick3[34]: x[34] + u[34] - r[34] <= 1
 mccormick3[35]: x[35] + u[35] - r[35] <= 1
 mccormick3[36]: x[36] + u[36] - r[36] <= 1
 mccormick3[37]: x[37] + u[37] - r[37] <= 1
 mccormick3[38]: x[38] + u[38] - r[38] <= 1
 mccormick3[39]: x[39] + u[39] - r[39] <= 1
 mccormick3[40]: x[40] + u[40] - r[40] <= 1
 mccormick3[41]: x[41] + u[41] - r[41] <= 1
 mccormick3[42]: x[42] + u[42] - r[42] <= 1
 mccormick3[43]: x[43] + u[43] - r[43] <= 1
 mccormick3[44]: x[44] + u[44] - r[44] <= 1
 mccormick3[45]: x[45] + u[45] - r[45] <= 1
 mccormick3[46]: x[46] + u[46] - r[46] <= 1
 mccormick3[47]: x[47] + u[47] - r[47] <= 1
 mccormick3[48]: x[48] + u[48] - r[48] <= 1
 mccormick3[49]: x[49] + u[49] - r[49] <= 1
 mccormick3[50]: x[50] + u[50] - r[50] <= 1
 mccormick3[51]: x[51] + u[51] - r[51] <= 1
 mccormick3[52]: x[52] + u[52] - r[52] <= 1
 mccormick3[53]: x[53] + u[53] - r[53] <= 1
 mccormick3[54]: x[54] + u[54] - r[54] <= 1
 mccormick3[55]: x[55] + u[55] - r[55] <= 1
 mccormick3[56]: x[56] + u[56] - r[56] <= 1
 mccormick3[57]: x[57] + u[57] - r[57] <= 1
 mccormick3[58]: x[58] + u[58] - r[58] <= 1
 mccormick3[59]: x[59] + u[59] - r[59] <= 1
 mccormick3[60]: x[60] + u[60] - r[60] <= 1
 mccormick3[61]: x[61] + u[61] - r[61] <= 1
 mccormick3[62]: x[62] + u[62] - r[62] <= 1
 mccormick3[63]: x[63] + u[63] - r[63] <= 1
 mccormick3[64]: x[64] + u[64] - r[64] <= 1
 mccormick3[65]: x[65] + u[65] - r[65] <= 1
 mccormick3[66]: x[66] + u[66] - r[66] <= 1
 mccormick3[67]: x[67] + u[67] - r[67] <= 1
 mccormick3[68]: x[68] + u[68] - r[68] <= 1
 mccormick3[69]: x[69] + u[69] - r[69] <= 1
 mccormick3[70]: x[70] + u[70] - r[70] <= 1
 mccormick3[71]: x[71] + u[71] - r[71] <= 1
 mccormick3[72]: x[72] + u[72] - r[72] <= 1
 mccormick3[73]: x[73] + u[73] - r[73] <= 1
 mccormick3[74]: x[74] + u[74] - r[74] <= 1
 mccormick3[75]: x[75] + u[75] - r[75] <= 1
 mccormick3[76]: x[76] + u[76] - r[76] <= 1
 mccormick3[77]: x[77] + u[77] - r[77] <= 1
 mccormick3[78]: x[78] + u[78] - r[78] <= 1
 mccormick3[79]: x[79] + u[79] - r[79] <= 1
 mccormick3[80]: x[80] + u[80] - r[80] <= 1
 mccormick3[81]: x[81] + u[81] - r[81] <= 1
 mccormick3[82]: x[82] + u[82] - r[82] <= 1
 mccormick3[83]: x[83] + u[83] - r[83] <= 1
 mccormick3[84]: x[84] + u[84] - r[84] <= 1
 mccormick3[85]: x[85] + u[85] - r[85] <= 1
 mccormick3[86]: x[86] + u[86] - r[86] <= 1
 mccormick3[87]: x[87] + u[87] - r[87] <= 1
 mccormick3[88]: x[88] + u[88] - r[88] <= 1
 mccormick3[89]: x[89] + u[89] - r[89] <= 1
 mccormick3[90]: x[90] + u[90] - r[90] <= 1
 mccormick3[91]: x[91] + u[91] - r[91] <= 1
 mccormick3[92]: x[92] + u[92] - r[92] <= 1
 mccormick3[93]: x[93] + u[93] - r[93] <= 1
 mccormick3[94]: x[94] + u[94] - r[94] <= 1
 mccormick3[95]: x[95] + u[95] - r[95] <= 1
 mccormick3[96]: x[96] + u[96] - r[96] <= 1
 mccormick3[97]: x[97] + u[97] - r[97] <= 1
 mccormick3[98]: x[98] + u[98] - r[98] <= 1
 mccormick3[99]: x[99] + u[99] - r[99] <= 1
 mccormick3[100]: x[100] + u[100] - r[100] <= 1
 mccormick3[101]: x[101] + u[101] - r[101] <= 1
 mccormick3[102]: x[102] + u[102] - r[102] <= 1
 mccormick3[103]: x[103] + u[103] - r[103] <= 1
 mccormick3[104]: x[104] + u[104] - r[104] <= 1
 mccormick3[105]: x[105] + u[105] - r[105] <= 1
 mccormick3[106]: x[106] + u[106] - r[106] <= 1
 mccormick3[107]: x[107] + u[107] - r[107] <= 1
 mccormick3[108]: x[108] + u[108] - r[108] <= 1
 mccormick3[109]: x[109] + u[109] - r[109] <= 1
 mccormick3[110]: x[110] + u[110] - r[110] <= 1
 mccormick3[111]: x[111] + u[111] - r[111] <= 1
 mccormick3[112]: x[112] + u[112] - r[112] <= 1
 mccormick3[113]: x[113] + u[113] - r[113] <= 1
 mccormick3[114]: x[114] + u[114] - r[114] <= 1
 mccormick3[115]: x[115] + u[115] - r[115] <= 1
 mccormick3[116]: x[116] + u[116] - r[116] <= 1
 mccormick3[117]: x[117] + u[117] - r[117] <= 1
 mccormick3[118]: x[118] + u[118] - r[118] <= 1
 mccormick3[119]: x[119] + u[119] - r[119] <= 1
 mccormick3[120]: x[120] + u[120] - r[120] <= 1
 mccormick3[121]: x[121] + u[121] - r[121] <= 1
 mccormick3[122]: x[122] + u[122] - r[122] <= 1
 mccormick3[123]: x[123] + u[123] - r[123] <= 1
 mccormick3[124]: x[124] + u[124] - r[124] <= 1
 mccormick3[125]: x[125] + u[125] - r[125] <= 1
 mccormick3[126]: x[126] + u[126] - r[126] <= 1
 mccormick3[127]: x[127] + u[127] - r[127] <= 1
 mccormick3[128]: x[128] + u[128] - r[128] <= 1
 mccormick3[129]: x[129] + u[129] - r[129] <= 1
 mccormick3[130]: x[130] + u[130] - r[130] <= 1
 mccormick3[131]: x[131] + u[131] - r[131] <= 1
 mccormick3[132]: x[132] + u[132] - r[132] <= 1
 mccormick3[133]: x[133] + u[133] - r[133] <= 1
 mccormick3[134]: x[134] + u[134] - r[134] <= 1
 mccormick3[135]: x[135] + u[135] - r[135] <= 1
 mccormick3[136]: x[136] + u[136] - r[136] <= 1
 mccormick3[137]: x[137] + u[137] - r[137] <= 1
 mccormick3[138]: x[138] + u[138] - r[138] <= 1
 mccormick3[139]: x[139] + u[139] - r[139] <= 1
Bounds
Binaries
 x[0] x[1] x[2] x[3] x[4] x[5] x[6] x[7] x[8] x[9] x[10] x[11] x[12] x[13]
 x[14] x[15] x[16] x[17] x[18] x[19] x[20] x[21] x[22] x[23] x[24] x[25]
 x[26] x[27] x[28] x[29] x[30] x[31] x[32] x[33] x[34] x[35] x[36] x[37]
 x[38] x[39] x[40] x[41] x[42] x[43] x[44] x[45] x[46] x[47] x[48] x[49]
 x[50] x[51] x[52] x[53] x[54] x[55] x[56] x[57] x[58] x[59] x[60] x[61]
 x[62] x[63] x[64] x[65] x[66] x[67] x[68] x[69] x[70] x[71] x[72] x[73]
 x[74] x[75] x[76] x[77] x[78] x[79] x[80] x[81] x[82] x[83] x[84] x[85]
 x[86] x[87] x[88] x[89] x[90] x[91] x[92] x[93] x[94] x[95] x[96] x[97]
 x[98] x[99] x[100] x[101] x[102] x[103] x[104] x[105] x[106] x[107] x[108]
 x[109] x[110] x[111] x[112] x[113] x[114] x[115] x[116] x[117] x[118]
 x[119] x[120] x[121] x[122] x[123] x[124] x[125] x[126] x[127] x[128]
 x[129] x[130] x[131] x[132] x[133] x[134] x[135] x[136] x[137] x[138]
 x[139] u[0] u[1] u[2] u[3] u[4] u[5] u[6] u[7] u[8] u[9] u[10] u[11] u[12]
 u[13] u[14] u[15] u[16] u[17] u[18] u[19] u[20] u[21] u[22] u[23] u[24]
 u[25] u[26] u[27] u[28] u[29] u[30] u[31] u[32] u[33] u[34] u[35] u[36]
 u[37] u[38] u[39] u[40] u[41] u[42] u[43] u[44] u[45] u[46] u[47] u[48]
 u[49] u[50] u[51] u[52] u[53] u[54] u[55] u[56] u[57] u[58] u[59] u[60]
 u[61] u[62] u[63] u[64] u[65] u[66] u[67] u[68] u[69] u[70] u[71] u[72]
 u[73] u[74] u[75] u[76] u[77] u[78] u[79] u[80] u[81] u[82] u[83] u[84]
 u[85] u[86] u[87] u[88] u[89] u[90] u[91] u[92] u[93] u[94] u[95] u[96]
 u[97] u[98] u[99] u[100] u[101] u[102] u[103] u[104] u[105] u[106] u[107]
 u[108] u[109] u[110] u[111] u[112] u[113] u[114] u[115] u[116] u[117]
 u[118] u[119] u[120] u[121] u[122] u[123] u[124] u[125] u[126] u[127]
 u[128] u[129] u[130] u[131] u[132] u[133] u[134] u[135] u[136] u[137]
 u[138] u[139] r[0] r[1] r[2] r[3] r[4] r[5] r[6] r[7] r[8] r[9] r[10]
 r[11] r[12] r[13] r[14] r[15] r[16] r[17] r[18] r[19] r[20] r[21] r[22]
 r[23] r[24] r[25] r[26] r[27] r[28] r[29] r[30] r[31] r[32] r[33] r[34]
 r[35] r[36] r[37] r[38] r[39] r[40] r[41] r[42] r[43] r[44] r[45] r[46]
 r[47] r[48] r[49] r[50] r[51] r[52] r[53] r[54] r[55] r[56] r[57] r[58]
 r[59] r[60] r[61] r[62] r[63] r[64] r[65] r[66] r[67] r[68] r[69] r[70]
 r[71] r[72] r[73] r[74] r[75] r[76] r[77] r[78] r[79] r[80] r[81] r[82]
 r[83] r[84] r[85] r[86] r[87] r[88] r[89] r[90] r[91] r[92] r[93] r[94]
 r[95] r[96] r[97] r[98] r[99] r[100] r[101] r[102] r[103] r[104] r[105]
 r[106] r[107] r[108] r[109] r[110] r[111] r[112] r[113] r[114] r[115]
 r[116] r[117] r[118] r[119] r[120] r[121] r[122] r[123] r[124] r[125]
 r[126] r[127] r[128] r[129] r[130] r[131] r[132] r[133] r[134] r[135]
 r[136] r[137] r[138] r[139]
End
